11
0  12  25  40  55  10  65  20  30  45  50
12  0  35  50  15  25  40  60  30  20  10
25  35  0  20  40  55  10  30  50  60  15
40  50  20  0  35  25  45  15  30  20  55
55  15  40  35  0  50  25  60  10  30  20
10  25  55  25  50  0  35  40  20  60  30
65  40  10  45  25  35  0  20  50  15  55
20  60  30  15  60  40  20  0  35  50  25
30  30  50  30  10  20  50  35  0  40  60
45  20  60  20  30  60  15  50  40  0  25
50  10  15  55  20  30  55  25  60  25  0